(set-info :smt-lib-version 2.6)
(set-logic QF_LIA)
(set-info :category "industrial")
(set-info :status sat)
(declare-fun x0 () Int)
(declare-fun x1 () Int)
(declare-fun x10 () Int)
(declare-fun x11 () Int)
(declare-fun x12 () Int)
(declare-fun x13 () Int)
(declare-fun x14 () Int)
(declare-fun x15 () Int)
(declare-fun x16 () Int)
(declare-fun x17 () Int)
(declare-fun x18 () Int)
(declare-fun x19 () Int)
(declare-fun x2 () Int)
(declare-fun x20 () Int)
(declare-fun x21 () Int)
(declare-fun x22 () Int)
(declare-fun x23 () Int)
(declare-fun x24 () Int)
(declare-fun x25 () Int)
(declare-fun x26 () Int)
(declare-fun x27 () Int)
(declare-fun x28 () Int)
(declare-fun x29 () Int)
(declare-fun x3 () Int)
(declare-fun x30 () Int)
(declare-fun x31 () Int)
(declare-fun x32 () Int)
(declare-fun x33 () Int)
(declare-fun x34 () Int)
(declare-fun x4 () Int)
(declare-fun x5 () Int)
(declare-fun x6 () Int)
(declare-fun x7 () Int)
(declare-fun x8 () Int)
(declare-fun x9 () Int)
(assert (let ((?v_21 (* 0 x11)) (?v_13 (* 0 x13)) (?v_22 (* 0 x16)) (?v_7 (* 0 x17)) (?v_9 (* 1 x2)) (?v_1 (* 0 x21)) (?v_71 (* 2 x15)) (?v_23 (* 0 x22)) (?v_26 (* 1 x24)) (?v_2 (* 0 x28)) (?v_18 (* 0 x6)) (?v_24 (* 0 x9)) (?v_90 (* 1 x31)) (?v_3 (* 0 x32)) (?v_28 (* 1 x4)) (?v_4 (* 0 x7)) (?v_12 (* 0 x8)) (?v_19 (* 1 x23))) (let ((?v_110 (+ ?v_12 ?v_19))) (let ((?v_94 (+ ?v_4 ?v_110)) (?v_43 (* 1 x1)) (?v_6 (* 1 x13)) (?v_15 (* 0 x15)) (?v_8 (* 0 x19)) (?v_10 (* 0 x23)) (?v_11 (* 0 x26)) (?v_51 (* 1 x25)) (?v_40 (* 0 x3)) (?v_17 (* 0 x31)) (?v_27 (* 1 x30)) (?v_74 (* 1 x5)) (?v_80 (* 1 x9)) (?v_67 (* 1 x16)) (?v_36 (* 0 x18)) (?v_37 (* 1 x21)) (?v_72 (* 1 x22)) (?v_16 (* 0 x24)) (?v_46 (* 0 x27)) (?v_55 (* 0 x29)) (?v_48 (* 0 x30)) (?v_69 (* 0 x34)) (?v_79 (* 1 x6)) (?v_112 (+ ?v_4 ?v_12)) (?v_41 (* 0 x0)) (?v_53 (* 0 x1)) (?v_44 (* 0 x14)) (?v_82 (* 0 x2)) (?v_29 (* 0 x5)) (?v_25 (* 1 x19)) (?v_30 (* 1 x8)) (?v_35 (* 0 x10)) (?v_52 (* 0 x33)) (?v_38 (* 1 x27)) (?v_39 (* 1 x29)) (?v_47 (* 0 x4)) (?v_60 (* 1 x14)) (?v_76 (* 1 x20)) (?v_54 (* 1 x12)) (?v_68 (* 1 x26)) (?v_73 (* 1 x28)) (?v_61 (* 1 x33)) (?v_58 (* 0 x20)) (?v_57 (* 1 x10)) (?v_77 (* 1 x3)) (?v_103 (* 1 x0)) (?v_102 (* 0 x25)) (?v_85 (* 1 x34)) (?v_78 (* 1 x32)) (?v_83 (* 2 x21)) (?v_89 (* 0 x12)) (?v_87 (* 2 x17)) (?v_86 (* 1 x11)) (?v_113 (* 1 x7)) (?v_99 (+ ?v_4 ?v_24)) (?v_98 (* 1 x15)) (?v_109 (* 2 x11)) (?v_0 (* (- 1) x12)) (?v_62 (* (- 1) x20)) (?v_20 (* (- 1) x25)) (?v_49 (* (- 1) x26)) (?v_56 (* (- 1) x5)) (?v_5 (* (- 1) x10)) (?v_81 (* (- 1) x14)) (?v_45 (* (- 1) x24)) (?v_108 (* (- 1) x33)) (?v_14 (* (- 1) x22)) (?v_70 (* (- 1) x8)) (?v_31 (* (- 1) x15)) (?v_84 (* (- 1) x9)) (?v_92 (* (- 1) x27)) (?v_34 (* (- 1) x34)) (?v_33 (* (- 1) x30)) (?v_64 (* (- 1) x7)) (?v_42 (* (- 1) x18)) (?v_32 (* (- 1) x23)) (?v_63 (* (- 1) x28)) (?v_104 (* (- 2) x13)) (?v_50 (* (- 1) x6)) (?v_66 (* (- 1) x11)) (?v_100 (* (- 1) x16)) (?v_97 (* (- 1) x29)) (?v_75 (* (- 1) x1)) (?v_59 (* (- 1) x31)) (?v_65 (* (- 1) x0)) (?v_107 (* (- 2) x25)) (?v_91 (* (- 1) x32)) (?v_96 (* (- 2) x2)) (?v_93 (* (- 1) x4)) (?v_105 (* (- 3) x30)) (?v_106 (* (- 1) x19)) (?v_88 (* (- 1) x21)) (?v_95 (* (- 1) x13)) (?v_101 (* (- 1) x17)) (?v_111 (* (- 1) x2))) (and (<= (+ (* (- 3) x10) (+ ?v_21 (+ ?v_0 (+ ?v_62 (+ ?v_20 (+ ?v_49 (+ ?v_13 (+ ?v_22 (+ ?v_7 (+ ?v_9 (+ ?v_1 (+ ?v_71 (+ ?v_23 (+ ?v_26 (+ ?v_2 (+ ?v_56 (+ ?v_18 (+ ?v_24 (+ ?v_90 (+ ?v_3 (+ ?v_28 ?v_94))))))))))))))))))))) 1) (<= (+ ?v_43 (+ ?v_5 (+ ?v_0 (+ ?v_6 (+ ?v_81 (+ ?v_45 (+ ?v_108 (+ ?v_15 (+ ?v_14 (+ ?v_8 (+ ?v_1 (+ ?v_70 (+ ?v_10 (+ ?v_11 (+ ?v_51 (+ ?v_2 (+ ?v_40 (+ ?v_17 (+ ?v_27 (+ ?v_3 (+ ?v_74 (+ ?v_4 ?v_80)))))))))))))))))))))) 0) (<= (+ (* (- 2) x3) (+ ?v_5 (+ ?v_6 (+ ?v_31 (+ ?v_67 (+ ?v_7 (+ ?v_36 (+ ?v_84 (+ ?v_8 (+ ?v_9 (+ ?v_37 (+ ?v_72 (+ ?v_10 (+ ?v_16 (+ ?v_11 (+ ?v_46 (+ ?v_2 (+ ?v_55 (+ ?v_48 (+ ?v_69 (+ ?v_79 ?v_112))))))))))))))))))))) 1) (<= (+ ?v_41 (+ (* (- 2) x9) (+ ?v_53 (+ ?v_5 (+ ?v_0 (+ ?v_13 (+ ?v_14 (+ ?v_92 (+ ?v_34 (+ ?v_44 (+ ?v_15 (+ ?v_82 (+ (* 1 x17) (+ ?v_16 (+ ?v_17 (+ ?v_29 (+ ?v_18 (+ ?v_25 (+ ?v_33 (+ ?v_64 (+ ?v_19 ?v_30))))))))))))))))))))) 0) (<= (+ (* 2 x0) (+ ?v_42 (+ ?v_32 (+ ?v_20 (+ ?v_63 (+ ?v_35 (+ ?v_21 (+ ?v_15 (+ ?v_22 (+ ?v_7 (+ ?v_23 (+ ?v_17 (+ ?v_52 (+ ?v_24 (+ ?v_25 (+ ?v_9 (+ ?v_26 (+ ?v_38 (+ ?v_39 (+ ?v_27 (+ ?v_3 (+ ?v_28 (+ ?v_29 ?v_30))))))))))))))))))))))) 0) (<= (+ ?v_104 (+ ?v_31 (+ ?v_32 (+ ?v_33 (+ ?v_34 (+ ?v_50 (+ ?v_35 (+ ?v_36 (+ ?v_8 (+ ?v_23 (+ ?v_2 (+ ?v_17 (+ ?v_47 (+ ?v_24 (+ ?v_60 (+ ?v_76 (+ ?v_37 (+ ?v_26 (+ ?v_38 (+ ?v_39 (+ ?v_40 (+ ?v_12 (* 2 x7))))))))))))))))))))))) 0) (<= (+ ?v_41 (+ ?v_66 (+ ?v_100 (+ ?v_42 (+ ?v_43 (+ ?v_13 (+ ?v_31 (+ ?v_14 (+ ?v_44 (+ ?v_8 (+ ?v_1 (+ ?v_54 (+ ?v_32 (+ ?v_45 (+ ?v_97 (+ ?v_34 (+ ?v_46 (+ ?v_47 (+ ?v_68 (+ ?v_73 (+ ?v_48 (+ ?v_3 (+ ?v_61 (+ ?v_29 ?v_12)))))))))))))))))))))))) 1) (<= (+ ?v_41 (+ ?v_75 (+ ?v_21 (+ (* (- 2) x15) (+ ?v_58 (+ ?v_1 (+ ?v_32 (+ ?v_49 (+ ?v_34 (+ ?v_50 (+ ?v_26 (+ ?v_51 (+ ?v_38 (+ ?v_2 (+ ?v_39 (+ ?v_59 (+ ?v_3 (+ ?v_52 (+ ?v_29 (+ ?v_12 (+ ?v_57 ?v_77))))))))))))))))))))) 0) (<= (+ ?v_65 (+ ?v_42 (+ ?v_53 (+ ?v_107 (+ ?v_14 (+ ?v_44 (+ ?v_15 (+ ?v_22 (+ ?v_54 (+ ?v_25 (+ ?v_9 (+ ?v_37 (+ ?v_32 (+ ?v_50 (+ ?v_11 (+ ?v_2 (+ ?v_55 (+ ?v_56 (+ ?v_17 (+ ?v_3 (+ ?v_52 (+ ?v_4 (+ ?v_24 ?v_57))))))))))))))))))))))) 1) (<= (+ ?v_103 (+ (* (- 2) x1) (+ ?v_42 (+ ?v_49 (+ ?v_13 (+ ?v_7 (+ ?v_58 (+ ?v_1 (+ ?v_102 (+ ?v_2 (+ ?v_59 (+ ?v_24 (+ ?v_54 (+ ?v_60 (+ ?v_25 (+ ?v_38 (+ ?v_91 (+ ?v_40 (+ ?v_48 (+ ?v_61 ?v_85)))))))))))))))))))) 0) (<= (+ (* (- 2) x11) (+ ?v_96 (+ ?v_62 (+ ?v_93 (+ ?v_53 (+ ?v_20 (+ ?v_13 (+ ?v_36 (+ ?v_63 (+ ?v_8 (+ ?v_64 (+ ?v_10 (+ ?v_11 (+ ?v_55 (+ ?v_40 (+ ?v_48 (+ ?v_52 (+ ?v_18 (+ ?v_24 ?v_78))))))))))))))))))) 1) (<= (+ ?v_65 (+ ?v_66 (+ ?v_43 (+ ?v_67 (+ ?v_45 (+ ?v_13 (+ ?v_8 (+ ?v_83 (+ ?v_51 (+ ?v_68 (+ ?v_33 (+ ?v_56 (+ ?v_17 (+ ?v_69 (+ ?v_28 (+ (* 2 x32) (+ (* 2 x33) (+ ?v_64 (+ ?v_70 ?v_10))))))))))))))))))) (- 1)) (<= (+ (* (- 2) x6) (+ ?v_21 (+ ?v_36 (+ ?v_45 (+ ?v_89 (+ ?v_6 (+ ?v_71 (+ ?v_87 (+ ?v_8 (+ ?v_72 (+ ?v_70 (+ ?v_10 (+ ?v_73 (+ ?v_48 (+ ?v_69 (+ ?v_47 (+ ?v_24 (+ ?v_61 ?v_74)))))))))))))))))) 1) (<= (+ ?v_41 (+ ?v_75 (+ ?v_45 (+ ?v_105 (+ ?v_35 (+ ?v_21 (+ ?v_44 (+ ?v_22 (+ ?v_36 (+ ?v_76 (+ ?v_37 (+ ?v_23 (+ ?v_54 (+ ?v_10 (+ ?v_38 (+ ?v_2 (+ ?v_55 (+ ?v_17 (+ ?v_12 (+ ?v_77 (+ ?v_78 (+ (* 2 x4) (+ ?v_79 ?v_80))))))))))))))))))))))) 0) (<= (+ ?v_65 (+ ?v_86 (+ ?v_13 (+ ?v_81 (+ ?v_22 (+ ?v_42 (+ ?v_7 (+ ?v_106 (+ ?v_82 (+ ?v_83 (+ ?v_14 (+ ?v_59 (+ ?v_84 (+ ?v_35 (+ ?v_10 (+ ?v_46 (+ ?v_47 (+ ?v_26 (+ ?v_68 (+ (* 2 x28) (+ ?v_3 (+ ?v_77 (+ ?v_27 (+ ?v_85 (+ ?v_113 ?v_30))))))))))))))))))))))))) 1) (<= (+ ?v_41 (+ (* (- 2) x20) (+ ?v_75 (+ ?v_86 (+ ?v_87 (+ ?v_88 (+ (* (- 2) x22) (+ ?v_63 (+ ?v_34 (+ ?v_70 (+ ?v_35 (+ ?v_44 (+ ?v_15 (+ ?v_54 (+ ?v_10 (+ ?v_38 (+ ?v_27 (+ ?v_3 (+ ?v_47 (+ ?v_74 ?v_99)))))))))))))))))))) 1) (<= (+ ?v_65 (+ ?v_53 (+ ?v_86 (+ ?v_95 (+ ?v_88 (+ ?v_20 (+ ?v_89 (+ ?v_15 (+ ?v_67 (+ ?v_36 (+ ?v_82 (+ ?v_58 (+ ?v_11 (+ ?v_25 (+ ?v_73 (+ ?v_39 (+ ?v_33 (+ ?v_90 (+ ?v_91 (+ ?v_35 (+ ?v_4 ?v_30))))))))))))))))))))) 0) (<= (+ ?v_65 (+ (* (- 2) x29) (+ ?v_62 (+ ?v_92 (+ ?v_33 (+ ?v_93 (+ ?v_56 (+ ?v_35 (+ ?v_86 (+ ?v_44 (+ ?v_23 (+ ?v_17 (+ ?v_69 (+ ?v_54 (+ ?v_98 (+ ?v_67 (+ ?v_25 (+ ?v_9 (+ ?v_37 (+ ?v_51 (+ ?v_68 (+ ?v_77 ?v_94)))))))))))))))))))))) 0) (<= (+ ?v_65 (+ ?v_43 (+ ?v_0 (+ ?v_88 (+ ?v_49 (+ ?v_92 (+ ?v_13 (+ ?v_31 (+ ?v_44 (+ ?v_67 (+ ?v_36 (+ ?v_82 (+ ?v_16 (+ ?v_25 (+ ?v_76 (+ ?v_72 (+ ?v_73 (+ ?v_91 (+ ?v_93 (+ ?v_84 (+ ?v_35 (+ ?v_52 (+ ?v_77 (+ ?v_79 ?v_4)))))))))))))))))))))))) 0) (<= (+ (* 2 x1) (+ ?v_0 (+ ?v_81 (+ ?v_31 (+ ?v_101 (+ ?v_56 (+ ?v_70 (+ ?v_84 (+ ?v_35 (+ ?v_21 (+ ?v_36 (+ ?v_82 (+ ?v_76 (+ ?v_16 (+ ?v_46 (+ ?v_51 (+ ?v_2 (+ ?v_39 (+ ?v_48 (+ ?v_47 (+ ?v_77 (+ ?v_85 ?v_4)))))))))))))))))))))) 1) (<= (+ ?v_75 (+ ?v_95 (+ (* (- 2) x14) (+ ?v_96 (+ (* (- 2) x34) (+ ?v_88 (+ ?v_20 (+ ?v_97 (+ (* (- 1) x3) (+ ?v_84 (+ ?v_35 (+ ?v_21 (+ ?v_7 (+ ?v_58 (+ ?v_98 (+ ?v_23 (+ ?v_25 (+ ?v_10 (+ ?v_16 (+ ?v_46 (+ ?v_2 (+ ?v_3 ?v_79)))))))))))))))))))))) 1) (<= (+ ?v_21 (+ ?v_43 (+ ?v_0 (+ ?v_88 (+ ?v_13 (+ ?v_31 (+ ?v_7 (+ ?v_8 (+ ?v_11 (+ ?v_69 (+ ?v_47 (+ ?v_60 (+ ?v_9 (+ ?v_72 (+ ?v_73 (+ ?v_61 (+ ?v_79 (+ ?v_70 (+ ?v_10 (+ ?v_40 (+ ?v_48 (+ ?v_3 ?v_99)))))))))))))))))))))) (- 1)) (<= (+ ?v_65 (+ ?v_66 (+ ?v_22 (+ ?v_36 (+ ?v_43 (+ ?v_8 (+ ?v_60 (+ ?v_9 (+ ?v_72 (+ ?v_10 (+ ?v_11 (+ ?v_26 (+ ?v_2 (+ ?v_48 (+ ?v_17 (+ ?v_47 (+ ?v_29 (+ ?v_24 (+ ?v_77 (+ ?v_78 (+ ?v_61 (+ ?v_4 ?v_57)))))))))))))))))))))) (- 1)) (<= (+ ?v_100 (+ (* (- 2) x18) (+ ?v_21 (+ ?v_101 (+ ?v_111 (+ ?v_15 (+ ?v_56 (+ ?v_8 (+ ?v_60 (+ ?v_37 (+ ?v_72 (+ ?v_10 (+ ?v_26 (+ ?v_102 (+ ?v_11 (+ ?v_39 (+ ?v_48 (+ ?v_47 (+ ?v_24 (+ ?v_78 (+ ?v_85 ?v_12))))))))))))))))))))) 0) (<= (+ ?v_100 (+ ?v_103 (+ ?v_109 (+ ?v_104 (+ (* (- 2) x19) (+ ?v_92 (+ ?v_44 (+ ?v_15 (+ ?v_82 (+ ?v_76 (+ (* 2 x25) (+ ?v_105 (+ ?v_56 (+ ?v_70 (+ ?v_40 (+ ?v_47 ?v_4)))))))))))))))) 0) (<= (+ ?v_65 (+ (* (- 2) x4) (+ ?v_21 (+ ?v_31 (+ ?v_42 (+ ?v_106 (+ ?v_89 (+ ?v_13 (+ ?v_7 (+ ?v_82 (+ ?v_76 (+ ?v_83 (+ ?v_102 (+ ?v_11 (+ ?v_70 (+ ?v_40 (+ ?v_48 (+ ?v_17 (+ ?v_18 (+ ?v_78 (+ ?v_61 (+ ?v_74 ?v_4)))))))))))))))))))))) 1) (<= (+ ?v_41 (+ ?v_53 (+ ?v_86 (+ ?v_107 (+ ?v_13 (+ ?v_81 (+ ?v_100 (+ ?v_42 (+ ?v_88 (+ ?v_92 (+ ?v_15 (+ ?v_7 (+ ?v_82 (+ ?v_55 (+ ?v_59 (+ ?v_56 (+ ?v_18 (+ ?v_54 (+ ?v_25 (+ ?v_73 (+ ?v_3 (+ ?v_61 (+ ?v_12 (* 2 x9)))))))))))))))))))))))) 0) (<= (+ ?v_41 (+ ?v_21 (+ (* (- 2) x27) (+ ?v_0 (+ ?v_45 (+ ?v_50 (+ ?v_6 (+ ?v_31 (+ ?v_44 (+ ?v_22 (+ ?v_9 (+ ?v_58 (+ ?v_55 (+ ?v_72 (+ ?v_3 (+ ?v_69 (+ ?v_47 (+ ?v_29 (+ ?v_70 ?v_24))))))))))))))))))) (- 1)) (<= (+ ?v_65 (+ ?v_75 (+ ?v_0 (+ ?v_22 (+ ?v_82 (+ ?v_11 (+ ?v_46 (+ ?v_55 (+ ?v_108 (+ ?v_8 (+ ?v_3 (+ ?v_69 (+ ?v_47 (+ ?v_29 (+ ?v_4 (+ ?v_57 (+ ?v_109 (+ ?v_6 (+ ?v_60 (+ ?v_76 (+ ?v_90 (+ ?v_30 ?v_80)))))))))))))))))))))) 0) (<= (+ ?v_65 (+ ?v_75 (+ ?v_42 (+ ?v_97 (+ ?v_21 (+ ?v_0 (+ ?v_22 (+ ?v_6 (+ ?v_14 (+ ?v_8 (+ ?v_9 (+ ?v_16 (+ ?v_37 (+ ?v_2 (+ ?v_33 (+ ?v_17 (+ ?v_91 (+ ?v_108 (+ ?v_34 (+ ?v_28 (+ ?v_18 (+ ?v_84 (+ ?v_40 (+ ?v_4 ?v_19)))))))))))))))))))))))) (- 1)) (<= (+ ?v_66 (+ ?v_101 (+ ?v_97 (+ ?v_59 (+ ?v_84 (+ ?v_8 (+ ?v_82 (+ ?v_76 (+ ?v_16 (+ ?v_11 (+ ?v_37 (+ (* 2 x27) (+ ?v_2 (+ ?v_48 (+ ?v_28 (+ ?v_18 (+ ?v_74 ?v_110))))))))))))))))) 1) (<= (+ ?v_103 (+ ?v_21 (+ ?v_43 (+ ?v_31 (+ ?v_111 (+ ?v_20 (+ ?v_92 (+ ?v_84 (+ ?v_89 (+ ?v_7 (+ ?v_8 (+ ?v_1 (+ ?v_2 (+ ?v_55 (+ ?v_60 (+ ?v_33 (+ ?v_3 (+ ?v_85 (+ ?v_29 (+ (* 2 x3) ?v_112)))))))))))))))))))) 1) (<= (+ ?v_41 (+ (* (- 2) x24) (+ ?v_0 (+ ?v_95 (+ ?v_9 (+ ?v_62 (+ ?v_92 (+ ?v_52 (+ ?v_18 (+ ?v_37 (+ ?v_51 (+ ?v_28 (+ ?v_29 (+ ?v_25 (+ ?v_70 (+ ?v_40 (+ ?v_24 (+ ?v_19 (+ ?v_90 ?v_113))))))))))))))))))) 0) (<= (+ ?v_65 (+ ?v_75 (+ ?v_66 (+ ?v_111 (+ ?v_88 (+ ?v_59 (+ ?v_108 (+ ?v_44 (+ ?v_15 (+ ?v_8 (+ ?v_58 (+ ?v_46 (+ ?v_47 (+ ?v_72 (+ ?v_12 (+ ?v_19 (+ ?v_26 (+ ?v_73 (+ ?v_39 (+ ?v_27 (+ (* 2 x5) ?v_113))))))))))))))))))))) (- 1)) (<= (+ ?v_41 (+ ?v_66 (+ ?v_62 (+ ?v_92 (+ ?v_53 (+ ?v_22 (+ ?v_7 (+ ?v_36 (+ ?v_108 (+ ?v_102 (+ ?v_11 (+ ?v_24 (+ ?v_98 (+ ?v_9 (+ ?v_37 (+ ?v_73 (+ ?v_39 (+ ?v_17 (+ ?v_28 (+ ?v_79 (+ (* 2 x14) (+ ?v_27 (+ ?v_78 (* 3 x23)))))))))))))))))))))))) (- 1)))))))
(check-sat)
(exit)
